1 -1 -2 0
1 3 -4 0
1 -3 -5 0
1 -3 -6 0
1 7 8 0
1 7 -9 0
1 -5 10 0
1 11 -12 0
1 -11 13 0
1 -11 -3 0
1 -9 14 0
1 9 15 0
1 -16 -17 0
1 -16 18 0
1 8 4 0
1 -8 -17 0
1 8 -19 0
1 -8 -20 0
1 -8 -15 0
1 -4 -21 0
1 -4 -19 0
1 -4 -20 0
1 -4 15 0
1 -14 -9 0
1 14 22 0
1 18 -23 0
1 -24 -25 0
1 26 -18 0
1 26 -27 0
1 22 28 0
1 22 29 0
1 23 -28 0
1 -23 18 0
1 30 -31 0
1 32 33 0
1 -32 34 0
1 -35 36 0
1 35 -30 0
1 -35 37 0
1 -31 30 0
1 -38 33 0
1 -38 -39 0
1 38 -36 0
1 -40 35 0
1 -40 41 0
1 12 21 0
1 -12 42 0
1 -43 34 0
1 -44 11 0
1 -44 45 0
1 -34 13 0
1 -41 -43 0
1 46 40 0
1 -46 -30 0
1 10 47 0
1 10 5 0
1 -10 45 0
1 20 -48 0
1 49 50 0
1 -47 -44 0
1 45 43 0
1 -51 -44 0
1 51 -43 0
1 52 -51 0
1 -52 53 0
1 -52 -20 0
1 52 -54 0
1 19 23 0
1 29 55 0
1 29 -16 0
1 29 -56 0
1 57 -58 0
1 -57 59 0
1 57 -54 0
1 -56 49 0
1 55 -60 0
1 61 -49 0
1 48 53 0
1 48 -62 0
1 -60 26 0
1 -60 56 0
1 60 22 0
1 63 55 0
1 -63 22 0
1 59 -64 0
1 65 66 0
1 65 64 0
1 65 67 0
1 68 63 0
1 58 57 0
1 -69 70 0
1 71 72 0
1 73 25 0
1 25 74 0
1 75 74 0
1 -76 -74 0
1 -76 77 0
1 76 67 0
1 70 -78 0
1 70 -79 0
1 -80 -81 0
1 80 -82 0
1 83 84 0
1 -85 -86 0
1 84 81 0
1 -84 -87 0
1 -88 -33 0
1 -88 -83 0
1 88 12 0
1 89 -39 0
1 -89 -87 0
1 89 90 0
1 39 -91 0
1 -39 92 0
1 -39 87 0
1 -93 94 0
1 -82 -95 0
1 -81 -96 0
1 81 84 0
1 36 -46 0
1 36 -93 0
1 94 -97 0
1 -98 -99 0
1 95 -97 0
1 95 -100 0
1 95 -93 0
1 -95 90 0
1 91 -98 0
1 101 -39 0
1 -90 -96 0
1 -90 -102 0
1 -90 103 0
1 102 95 0
1 -102 -104 0
1 102 89 0
1 -105 -34 0
1 105 51 0
1 105 -104 0
1 106 107 0
1 106 -105 0
1 106 -108 0
1 -109 -99 0
1 -54 -101 0
1 -99 -110 0
1 99 -108 0
1 99 -111 0
1 99 62 0
1 -108 106 0
1 107 -112 0
1 -107 54 0
1 53 61 0
1 -53 -52 0
1 113 -51 0
1 113 63 0
1 110 114 0
1 -110 115 0
1 114 -116 0
1 117 -114 0
1 117 -118 0
1 117 -72 0
1 -119 97 0
1 119 -116 0
1 -120 121 0
1 120 -110 0
1 -120 113 0
1 72 -58 0
1 72 122 0
1 72 -71 0
1 72 -115 0
1 123 -124 0
1 123 -115 0
1 118 125 0
1 -126 -110 0
1 -126 -127 0
1 126 -128 0
1 -126 -72 0
1 125 -62 0
1 66 -70 0
1 66 -76 0
1 -79 66 0
1 79 -68 0
1 -129 126 0
1 -77 129 0
1 -77 130 0
1 77 -124 0
1 -77 131 0
1 -77 -132 0
1 -133 -134 0
1 135 -136 0
1 -132 137 0
1 -132 -118 0
1 -74 -130 0
1 -74 -75 0
1 78 -128 0
1 134 -138 0
1 -134 -139 0
1 138 134 0
1 140 -129 0
1 141 -142 0
1 130 -143 0
1 144 -145 0
1 -144 146 0
1 -147 -148 0
1 -149 146 0
1 150 149 0
1 104 -151 0
1 96 81 0
1 152 153 0
1 -151 -154 0
1 155 -156 0
1 -154 -53 0
1 157 -158 0
1 -157 159 0
1 -159 -160 0
1 -159 161 0
1 -162 -154 0
1 -162 163 0
1 -164 103 0
1 165 -99 0
1 -111 -165 0
1 166 -119 0
1 -163 167 0
1 -168 163 0
1 -168 -159 0
1 169 -170 0
1 161 -171 0
1 160 172 0
1 -121 -114 0
1 170 167 0
1 -131 170 0
1 -131 -167 0
1 -173 -167 0
1 -173 -174 0
1 -173 116 0
1 -112 -107 0
1 -175 -176 0
1 -128 -132 0
1 -139 -177 0
1 139 -178 0
1 179 -178 0
1 178 -179 0
1 178 128 0
1 -180 -137 0
1 -177 -170 0
1 -177 179 0
1 177 128 0
1 -136 -180 0
1 181 182 0
1 -127 179 0
1 183 160 0
1 -183 -156 0
1 183 161 0
1 -184 -185 0
1 -184 186 0
1 -184 187 0
1 188 158 0
1 -189 190 0
1 189 191 0
1 -192 -169 0
1 -192 -186 0
1 176 -185 0
1 176 -193 0
1 -193 -179 0
1 -187 -189 0
1 187 -174 0
1 -187 185 0
1 -185 194 0
1 -185 -187 0
1 -174 175 0
1 194 195 0
1 -194 181 0
1 196 172 0
1 -196 194 0
1 -197 -168 0
1 -198 -176 0
1 198 197 0
1 -198 194 0
1 171 -176 0
1 171 -174 0
